(declare-const c_0 Real)
(declare-const c_1 Real)
(declare-const c_2 Real)
(declare-const c_3 Real)
(declare-const c_4 Real)
(declare-const c_5 Real)
(declare-const c_6 Real)
(declare-const c_7 Real)
(declare-const c_8 Real)
(declare-const c_9 Real)
(declare-const c_10 Real)
(declare-const c_11 Real)
(declare-const c_12 Real)
(declare-const c_13 Real)
(declare-const c_14 Real)
(declare-const c_15 Real)
(declare-const c_16 Real)
(declare-const c_17 Real)
(declare-const c_18 Real)
(declare-const c_19 Real)
(declare-const c_20 Real)
(declare-const c_21 Real)
(declare-const c_22 Real)
(declare-const c_23 Real)
(declare-const c_24 Real)
(declare-const c_25 Real)
(declare-const c_26 Real)
(declare-const c_27 Real)
(declare-const c_28 Real)
(declare-const c_29 Real)
(declare-const c_30 Real)
(declare-const c_31 Real)
(declare-const c_32 Real)
(declare-const c_33 Real)
(declare-const c_34 Real)
(declare-const c_35 Real)
(declare-const c_36 Real)
(declare-const c_37 Real)
(declare-const c_38 Real)
(declare-const c_39 Real)
(declare-const c_40 Real)
(declare-const c_41 Real)
(declare-const c_42 Real)
(declare-const c_43 Real)
(declare-const c_44 Real)
(declare-const s_0 Real)
(declare-const s_1 Real)
(declare-const s_2 Real)
(declare-const s_3 Real)
(declare-const s_4 Real)
(declare-const s_5 Real)
(declare-const s_6 Real)
(declare-const s_7 Real)
(declare-const s_8 Real)
(declare-const s_9 Real)
(declare-const s_10 Real)
(declare-const s_11 Real)
(declare-const s_12 Real)
(declare-const s_13 Real)
(declare-const s_14 Real)
(declare-const s_15 Real)
(declare-const s_16 Real)
(declare-const s_17 Real)
(declare-const s_18 Real)
(declare-const s_19 Real)
(declare-const s_20 Real)
(declare-const s_21 Real)
(declare-const s_22 Real)
(declare-const s_23 Real)
(declare-const s_24 Real)
(declare-const s_25 Real)
(declare-const s_26 Real)
(declare-const s_27 Real)
(declare-const s_28 Real)
(declare-const s_29 Real)
(declare-const s_30 Real)
(declare-const s_31 Real)
(declare-const s_32 Real)
(declare-const s_33 Real)
(declare-const s_34 Real)
(declare-const s_35 Real)
(declare-const s_36 Real)
(declare-const s_37 Real)
(declare-const s_38 Real)
(declare-const s_39 Real)
(declare-const s_40 Real)
(declare-const s_41 Real)
(declare-const s_42 Real)
(declare-const s_43 Real)
(declare-const s_44 Real)
(assert (forall ((x Real) (i Real) (m Real) (n Real) ) (=> (and (>= (+ (* 1024 1) (* 1 x ) ) 0) (>= (+ (* 1023 1) (* (- 1) x ) ) 0) (>= (+ (* 1024 1) (* 1 i ) ) 0) (>= (+ (* 1023 1) (* (- 1) i ) ) 0) (>= (+ (* 1024 1) (* 1 m ) ) 0) (>= (+ (* 1023 1) (* (- 1) m ) ) 0) (>= (+ (* 1024 1) (* 1 n ) ) 0) (>= (+ (* 1023 1) (* (- 1) n ) ) 0) ) (>= (+ (* 1 i m s_2 ) (* 1 i n s_3 ) (* 1 i s_1 ) (* 1 i s_4 x ) (* 1 i i s_5 ) (* 1 m n s_7 ) (* 1 m s_6 ) (* 1 m s_8 x ) (* 1 m m s_9 ) (* 1 n s_10 ) (* 1 n s_11 x ) (* 1 n n s_12 ) (* 1 s_0 ) (* 1 s_13 x ) (* 1 s_14 x x ) ) 0) )))
(assert (forall ((x Real) (i Real) (m Real) (n Real) ) (=> (and (>= (+ (* 1024 1) (* 1 x ) ) 0) (>= (+ (* 1023 1) (* (- 1) x ) ) 0) (>= (+ (* 1024 1) (* 1 i ) ) 0) (>= (+ (* 1023 1) (* (- 1) i ) ) 0) (>= (+ (* 1024 1) (* 1 m ) ) 0) (>= (+ (* 1023 1) (* (- 1) m ) ) 0) (>= (+ (* 1024 1) (* 1 n ) ) 0) (>= (+ (* 1023 1) (* (- 1) n ) ) 0) ) (>= (+ (* 1 c_0 ) (* 1 c_1 i ) (* 1 c_10 n ) (* 1 c_11 n x ) (* 1 c_12 n n ) (* 1 c_13 x ) (* 1 c_14 x x ) (* 1 c_2 i m ) (* 1 c_3 i n ) (* 1 c_4 i x ) (* 1 c_5 i i ) (* 1 c_6 m ) (* 1 c_7 m n ) (* 1 c_8 m x ) (* 1 c_9 m m ) ) 0) )))
(assert (forall ((x Real) (i Real) (m Real) (n Real) ) (=> (and (>= (+ (* (- 1) 1) (* 1 n ) (* (- 1) x ) ) 0) (>= (+ (* 1023 1) (* (- 1) n ) ) 0) (>= (+ (* 1023 1) (* (- 1) m ) ) 0) (>= (+ (* 1023 1) (* (- 1) x ) ) 0) (>= (+ (* 2047 1) (* (- 1) i ) (* 1 n ) ) 0) (>= (+ (* 1024 1) (* 1 n ) ) 0) (>= (+ (* 1024 1) (* 1 m ) ) 0) (>= (+ (* 1024 1) (* 1 i ) ) 0) (>= (+ (* 2047 1) (* (- 1) i ) (* 1 x ) ) 0) (>= (+ (* 1024 1) (* 1 x ) ) 0) (>= (+ (* 1 i m s_2 ) (* 1 i n s_3 ) (* 1 i s_1 ) (* 1 i s_4 x ) (* 1 i i s_5 ) (* 1 m n s_7 ) (* 1 m s_6 ) (* 1 m s_8 x ) (* 1 m m s_9 ) (* 1 n s_10 ) (* 1 n s_11 x ) (* 1 n n s_12 ) (* 1 s_0 ) (* 1 s_13 x ) (* 1 s_14 x x ) ) 0) ) (>= (+ (* 1 i m s_2 ) (* 1 i n s_3 ) (* 1 i s_1 ) (* 1 i s_4 ) (* 1 i s_4 x ) (* 2 i s_5 ) (* 1 i i s_5 ) (* 1 m n s_7 ) (* 1 m s_2 ) (* 1 m s_6 ) (* 1 m s_8 ) (* 1 m s_8 x ) (* 1 m m s_9 ) (* 1 n s_10 ) (* 1 n s_11 ) (* 1 n s_11 x ) (* 1 n s_3 ) (* 1 n n s_12 ) (* 1 s_0 ) (* 1 s_1 ) (* 1 s_13 ) (* 1 s_13 x ) (* 1 s_14 ) (* 2 s_14 x ) (* 1 s_14 x x ) (* 1 s_4 ) (* 1 s_4 x ) (* 1 s_5 ) ) 0) )))
(assert (forall ((x Real) (i Real) (m Real) (n Real) ) (=> (and (>= (+ (* (- 1) 1) (* 1 n ) (* (- 1) x ) ) 0) (>= (+ (* 1023 1) (* (- 1) n ) ) 0) (>= (+ (* 1023 1) (* (- 1) m ) ) 0) (>= (+ (* 1023 1) (* (- 1) x ) ) 0) (>= (+ (* 2047 1) (* (- 1) i ) (* 1 n ) ) 0) (>= (+ (* 1024 1) (* 1 n ) ) 0) (>= (+ (* 1024 1) (* 1 m ) ) 0) (>= (+ (* 1024 1) (* 1 i ) ) 0) (>= (+ (* 2047 1) (* (- 1) i ) (* 1 x ) ) 0) (>= (+ (* 1024 1) (* 1 x ) ) 0) (>= (+ (* 1 i m s_2 ) (* 1 i n s_3 ) (* 1 i s_1 ) (* 1 i s_4 x ) (* 1 i i s_5 ) (* 1 m n s_7 ) (* 1 m s_6 ) (* 1 m s_8 x ) (* 1 m m s_9 ) (* 1 n s_10 ) (* 1 n s_11 x ) (* 1 n n s_12 ) (* 1 s_0 ) (* 1 s_13 x ) (* 1 s_14 x x ) ) 0) ) (>= (+ (* 1 c_0 ) (* 1 c_1 ) (* 1 c_1 i ) (* 1 c_10 n ) (* 1 c_11 n ) (* 1 c_11 n x ) (* 1 c_12 n n ) (* 1 c_13 ) (* 1 c_13 x ) (* 1 c_14 ) (* 2 c_14 x ) (* 1 c_14 x x ) (* 1 c_2 i m ) (* 1 c_2 m ) (* 1 c_3 i n ) (* 1 c_3 n ) (* 1 c_4 ) (* 1 c_4 i ) (* 1 c_4 i x ) (* 1 c_4 x ) (* 1 c_5 ) (* 2 c_5 i ) (* 1 c_5 i i ) (* 1 c_6 m ) (* 1 c_7 m n ) (* 1 c_8 m ) (* 1 c_8 m x ) (* 1 c_9 m m ) ) 0) )))
(assert (forall ((x Real) (i Real) (m Real) (n Real) ) (=> (and (>= (+ (* (- 1) 1) (* 1 n ) (* (- 1) x ) ) 0) (>= (+ (* 1023 1) (* (- 1) n ) ) 0) (>= (+ (* 1023 1) (* (- 1) m ) ) 0) (>= (+ (* 1023 1) (* (- 1) x ) ) 0) (>= (+ (* 2047 1) (* (- 1) i ) (* 1 n ) ) 0) (>= (+ (* 1024 1) (* 1 n ) ) 0) (>= (+ (* 1024 1) (* 1 m ) ) 0) (>= (+ (* 1024 1) (* 1 i ) ) 0) (>= (+ (* 2047 1) (* (- 1) i ) (* 1 x ) ) 0) (>= (+ (* 1024 1) (* 1 x ) ) 0) (>= (+ (* 1 i m s_2 ) (* 1 i n s_3 ) (* 1 i s_1 ) (* 1 i s_4 x ) (* 1 i i s_5 ) (* 1 m n s_7 ) (* 1 m s_6 ) (* 1 m s_8 x ) (* 1 m m s_9 ) (* 1 n s_10 ) (* 1 n s_11 x ) (* 1 n n s_12 ) (* 1 s_0 ) (* 1 s_13 x ) (* 1 s_14 x x ) ) 0) ) (>= (+ (* (- 1) 1) (* (- 1) c_1 ) (* (- 1) c_11 n ) (* (- 1) c_13 ) (* (- 1) c_14 ) (* (- 2) c_14 x ) (* (- 1) c_2 m ) (* (- 1) c_3 n ) (* (- 1) c_4 ) (* (- 1) c_4 i ) (* (- 1) c_4 x ) (* (- 1) c_5 ) (* (- 2) c_5 i ) (* (- 1) c_8 m ) ) 0) )))
(assert (forall ((x Real) (i Real) (m Real) (n Real) ) (=> (and (>= (+ (* (- 1) n ) (* 1 x ) ) 0) (>= (+ (* 1023 1) (* (- 1) n ) ) 0) (>= (+ (* 1023 1) (* (- 1) m ) ) 0) (>= (+ (* 1023 1) (* (- 1) x ) ) 0) (>= (+ (* 2047 1) (* (- 1) i ) (* 1 n ) ) 0) (>= (+ (* 1024 1) (* 1 n ) ) 0) (>= (+ (* 1024 1) (* 1 m ) ) 0) (>= (+ (* 1024 1) (* 1 i ) ) 0) (>= (+ (* 2047 1) (* (- 1) i ) (* 1 x ) ) 0) (>= (+ (* 1024 1) (* 1 x ) ) 0) (>= (+ (* 1 i m s_2 ) (* 1 i n s_3 ) (* 1 i s_1 ) (* 1 i s_4 x ) (* 1 i i s_5 ) (* 1 m n s_7 ) (* 1 m s_6 ) (* 1 m s_8 x ) (* 1 m m s_9 ) (* 1 n s_10 ) (* 1 n s_11 x ) (* 1 n n s_12 ) (* 1 s_0 ) (* 1 s_13 x ) (* 1 s_14 x x ) ) 0) ) (>= (+ (* 1 i m s_17 ) (* 1 i n s_18 ) (* 1 i s_16 ) (* 1 i s_19 x ) (* 1 i i s_20 ) (* 1 m n s_22 ) (* 1 m s_21 ) (* 1 m s_23 x ) (* 1 m m s_24 ) (* 1 n s_25 ) (* 1 n s_26 x ) (* 1 n n s_27 ) (* 1 s_15 ) (* 1 s_28 x ) (* 1 s_29 x x ) ) 0) )))
(assert (forall ((x Real) (i Real) (m Real) (n Real) ) (=> (and (>= (+ (* (- 1) n ) (* 1 x ) ) 0) (>= (+ (* 1023 1) (* (- 1) n ) ) 0) (>= (+ (* 1023 1) (* (- 1) m ) ) 0) (>= (+ (* 1023 1) (* (- 1) x ) ) 0) (>= (+ (* 2047 1) (* (- 1) i ) (* 1 n ) ) 0) (>= (+ (* 1024 1) (* 1 n ) ) 0) (>= (+ (* 1024 1) (* 1 m ) ) 0) (>= (+ (* 1024 1) (* 1 i ) ) 0) (>= (+ (* 2047 1) (* (- 1) i ) (* 1 x ) ) 0) (>= (+ (* 1024 1) (* 1 x ) ) 0) (>= (+ (* 1 i m s_2 ) (* 1 i n s_3 ) (* 1 i s_1 ) (* 1 i s_4 x ) (* 1 i i s_5 ) (* 1 m n s_7 ) (* 1 m s_6 ) (* 1 m s_8 x ) (* 1 m m s_9 ) (* 1 n s_10 ) (* 1 n s_11 x ) (* 1 n n s_12 ) (* 1 s_0 ) (* 1 s_13 x ) (* 1 s_14 x x ) ) 0) ) (>= (+ (* 1 c_15 ) (* 1 c_16 i ) (* 1 c_17 i m ) (* 1 c_18 i n ) (* 1 c_19 i x ) (* 1 c_20 i i ) (* 1 c_21 m ) (* 1 c_22 m n ) (* 1 c_23 m x ) (* 1 c_24 m m ) (* 1 c_25 n ) (* 1 c_26 n x ) (* 1 c_27 n n ) (* 1 c_28 x ) (* 1 c_29 x x ) ) 0) )))
(assert (forall ((x Real) (i Real) (m Real) (n Real) ) (=> (and (>= (+ (* (- 1) n ) (* 1 x ) ) 0) (>= (+ (* 1023 1) (* (- 1) n ) ) 0) (>= (+ (* 1023 1) (* (- 1) m ) ) 0) (>= (+ (* 1023 1) (* (- 1) x ) ) 0) (>= (+ (* 2047 1) (* (- 1) i ) (* 1 n ) ) 0) (>= (+ (* 1024 1) (* 1 n ) ) 0) (>= (+ (* 1024 1) (* 1 m ) ) 0) (>= (+ (* 1024 1) (* 1 i ) ) 0) (>= (+ (* 2047 1) (* (- 1) i ) (* 1 x ) ) 0) (>= (+ (* 1024 1) (* 1 x ) ) 0) (>= (+ (* 1 i m s_2 ) (* 1 i n s_3 ) (* 1 i s_1 ) (* 1 i s_4 x ) (* 1 i i s_5 ) (* 1 m n s_7 ) (* 1 m s_6 ) (* 1 m s_8 x ) (* 1 m m s_9 ) (* 1 n s_10 ) (* 1 n s_11 x ) (* 1 n n s_12 ) (* 1 s_0 ) (* 1 s_13 x ) (* 1 s_14 x x ) ) 0) ) (>= (+ (* (- 1) 1) (* 1 c_0 ) (* 1 c_1 i ) (* 1 c_10 n ) (* 1 c_11 n x ) (* 1 c_12 n n ) (* 1 c_13 x ) (* 1 c_14 x x ) (* (- 1) c_15 ) (* (- 1) c_16 i ) (* (- 1) c_17 i m ) (* (- 1) c_18 i n ) (* (- 1) c_19 i x ) (* 1 c_2 i m ) (* (- 1) c_20 i i ) (* (- 1) c_21 m ) (* (- 1) c_22 m n ) (* (- 1) c_23 m x ) (* (- 1) c_24 m m ) (* (- 1) c_25 n ) (* (- 1) c_26 n x ) (* (- 1) c_27 n n ) (* (- 1) c_28 x ) (* (- 1) c_29 x x ) (* 1 c_3 i n ) (* 1 c_4 i x ) (* 1 c_5 i i ) (* 1 c_6 m ) (* 1 c_7 m n ) (* 1 c_8 m x ) (* 1 c_9 m m ) ) 0) )))
(assert (forall ((x Real) (i Real) (m Real) (n Real) ) (=> (and (>= (+ (* (- 1) 1) (* 1 m ) (* (- 1) x ) ) 0) (>= (+ (* 1023 1) (* (- 1) x ) ) 0) (>= (+ (* 3071 1) (* (- 1) i ) (* 1 m ) (* 1 n ) ) 0) (>= (+ (* 1024 1) (* 1 n ) ) 0) (>= (+ (* 1024 1) (* 1 m ) ) 0) (>= (+ (* 1024 1) (* 1 i ) ) 0) (>= (+ (* 2047 1) (* (- 1) i ) (* 1 x ) ) 0) (>= (+ (* (- 1) n ) (* 1 x ) ) 0) (>= (+ (* 1023 1) (* (- 1) m ) ) 0) (>= (+ (* 1 i m s_17 ) (* 1 i n s_18 ) (* 1 i s_16 ) (* 1 i s_19 x ) (* 1 i i s_20 ) (* 1 m n s_22 ) (* 1 m s_21 ) (* 1 m s_23 x ) (* 1 m m s_24 ) (* 1 n s_25 ) (* 1 n s_26 x ) (* 1 n n s_27 ) (* 1 s_15 ) (* 1 s_28 x ) (* 1 s_29 x x ) ) 0) ) (>= (+ (* 1 i m s_17 ) (* 1 i n s_18 ) (* 1 i s_16 ) (* 1 i s_19 ) (* 1 i s_19 x ) (* 2 i s_20 ) (* 1 i i s_20 ) (* 1 m n s_22 ) (* 1 m s_17 ) (* 1 m s_21 ) (* 1 m s_23 ) (* 1 m s_23 x ) (* 1 m m s_24 ) (* 1 n s_18 ) (* 1 n s_25 ) (* 1 n s_26 ) (* 1 n s_26 x ) (* 1 n n s_27 ) (* 1 s_15 ) (* 1 s_16 ) (* 1 s_19 ) (* 1 s_19 x ) (* 1 s_20 ) (* 1 s_28 ) (* 1 s_28 x ) (* 1 s_29 ) (* 2 s_29 x ) (* 1 s_29 x x ) ) 0) )))
(assert (forall ((x Real) (i Real) (m Real) (n Real) ) (=> (and (>= (+ (* (- 1) 1) (* 1 m ) (* (- 1) x ) ) 0) (>= (+ (* 1023 1) (* (- 1) x ) ) 0) (>= (+ (* 3071 1) (* (- 1) i ) (* 1 m ) (* 1 n ) ) 0) (>= (+ (* 1024 1) (* 1 n ) ) 0) (>= (+ (* 1024 1) (* 1 m ) ) 0) (>= (+ (* 1024 1) (* 1 i ) ) 0) (>= (+ (* 2047 1) (* (- 1) i ) (* 1 x ) ) 0) (>= (+ (* (- 1) n ) (* 1 x ) ) 0) (>= (+ (* 1023 1) (* (- 1) m ) ) 0) (>= (+ (* 1 i m s_17 ) (* 1 i n s_18 ) (* 1 i s_16 ) (* 1 i s_19 x ) (* 1 i i s_20 ) (* 1 m n s_22 ) (* 1 m s_21 ) (* 1 m s_23 x ) (* 1 m m s_24 ) (* 1 n s_25 ) (* 1 n s_26 x ) (* 1 n n s_27 ) (* 1 s_15 ) (* 1 s_28 x ) (* 1 s_29 x x ) ) 0) ) (>= (+ (* 1 c_15 ) (* 1 c_16 ) (* 1 c_16 i ) (* 1 c_17 i m ) (* 1 c_17 m ) (* 1 c_18 i n ) (* 1 c_18 n ) (* 1 c_19 ) (* 1 c_19 i ) (* 1 c_19 i x ) (* 1 c_19 x ) (* 1 c_20 ) (* 2 c_20 i ) (* 1 c_20 i i ) (* 1 c_21 m ) (* 1 c_22 m n ) (* 1 c_23 m ) (* 1 c_23 m x ) (* 1 c_24 m m ) (* 1 c_25 n ) (* 1 c_26 n ) (* 1 c_26 n x ) (* 1 c_27 n n ) (* 1 c_28 ) (* 1 c_28 x ) (* 1 c_29 ) (* 2 c_29 x ) (* 1 c_29 x x ) ) 0) )))
(assert (forall ((x Real) (i Real) (m Real) (n Real) ) (=> (and (>= (+ (* (- 1) 1) (* 1 m ) (* (- 1) x ) ) 0) (>= (+ (* 1023 1) (* (- 1) x ) ) 0) (>= (+ (* 3071 1) (* (- 1) i ) (* 1 m ) (* 1 n ) ) 0) (>= (+ (* 1024 1) (* 1 n ) ) 0) (>= (+ (* 1024 1) (* 1 m ) ) 0) (>= (+ (* 1024 1) (* 1 i ) ) 0) (>= (+ (* 2047 1) (* (- 1) i ) (* 1 x ) ) 0) (>= (+ (* (- 1) n ) (* 1 x ) ) 0) (>= (+ (* 1023 1) (* (- 1) m ) ) 0) (>= (+ (* 1 i m s_17 ) (* 1 i n s_18 ) (* 1 i s_16 ) (* 1 i s_19 x ) (* 1 i i s_20 ) (* 1 m n s_22 ) (* 1 m s_21 ) (* 1 m s_23 x ) (* 1 m m s_24 ) (* 1 n s_25 ) (* 1 n s_26 x ) (* 1 n n s_27 ) (* 1 s_15 ) (* 1 s_28 x ) (* 1 s_29 x x ) ) 0) ) (>= (+ (* (- 1) 1) (* (- 1) c_16 ) (* (- 1) c_17 m ) (* (- 1) c_18 n ) (* (- 1) c_19 ) (* (- 1) c_19 i ) (* (- 1) c_19 x ) (* (- 1) c_20 ) (* (- 2) c_20 i ) (* (- 1) c_23 m ) (* (- 1) c_26 n ) (* (- 1) c_28 ) (* (- 1) c_29 ) (* (- 2) c_29 x ) ) 0) )))
(assert (forall ((x Real) (i Real) (m Real) (n Real) ) (=> (and (>= (+ (* (- 1) m ) (* 1 x ) ) 0) (>= (+ (* 1023 1) (* (- 1) x ) ) 0) (>= (+ (* 3071 1) (* (- 1) i ) (* 1 m ) (* 1 n ) ) 0) (>= (+ (* 1024 1) (* 1 n ) ) 0) (>= (+ (* 1024 1) (* 1 m ) ) 0) (>= (+ (* 1024 1) (* 1 i ) ) 0) (>= (+ (* 2047 1) (* (- 1) i ) (* 1 x ) ) 0) (>= (+ (* (- 1) n ) (* 1 x ) ) 0) (>= (+ (* 1023 1) (* (- 1) m ) ) 0) (>= (+ (* 1 i m s_17 ) (* 1 i n s_18 ) (* 1 i s_16 ) (* 1 i s_19 x ) (* 1 i i s_20 ) (* 1 m n s_22 ) (* 1 m s_21 ) (* 1 m s_23 x ) (* 1 m m s_24 ) (* 1 n s_25 ) (* 1 n s_26 x ) (* 1 n n s_27 ) (* 1 s_15 ) (* 1 s_28 x ) (* 1 s_29 x x ) ) 0) ) (>= (+ (* 1 i m s_32 ) (* 1 i n s_33 ) (* 1 i s_31 ) (* 1 i s_34 x ) (* 1 i i s_35 ) (* 1 m n s_37 ) (* 1 m s_36 ) (* 1 m s_38 x ) (* 1 m m s_39 ) (* 1 n s_40 ) (* 1 n s_41 x ) (* 1 n n s_42 ) (* 1 s_30 ) (* 1 s_43 x ) (* 1 s_44 x x ) ) 0) )))
(assert (forall ((x Real) (i Real) (m Real) (n Real) ) (=> (and (>= (+ (* (- 1) m ) (* 1 x ) ) 0) (>= (+ (* 1023 1) (* (- 1) x ) ) 0) (>= (+ (* 3071 1) (* (- 1) i ) (* 1 m ) (* 1 n ) ) 0) (>= (+ (* 1024 1) (* 1 n ) ) 0) (>= (+ (* 1024 1) (* 1 m ) ) 0) (>= (+ (* 1024 1) (* 1 i ) ) 0) (>= (+ (* 2047 1) (* (- 1) i ) (* 1 x ) ) 0) (>= (+ (* (- 1) n ) (* 1 x ) ) 0) (>= (+ (* 1023 1) (* (- 1) m ) ) 0) (>= (+ (* 1 i m s_17 ) (* 1 i n s_18 ) (* 1 i s_16 ) (* 1 i s_19 x ) (* 1 i i s_20 ) (* 1 m n s_22 ) (* 1 m s_21 ) (* 1 m s_23 x ) (* 1 m m s_24 ) (* 1 n s_25 ) (* 1 n s_26 x ) (* 1 n n s_27 ) (* 1 s_15 ) (* 1 s_28 x ) (* 1 s_29 x x ) ) 0) ) (>= (+ (* 1 c_30 ) (* 1 c_31 i ) (* 1 c_32 i m ) (* 1 c_33 i n ) (* 1 c_34 i x ) (* 1 c_35 i i ) (* 1 c_36 m ) (* 1 c_37 m n ) (* 1 c_38 m x ) (* 1 c_39 m m ) (* 1 c_40 n ) (* 1 c_41 n x ) (* 1 c_42 n n ) (* 1 c_43 x ) (* 1 c_44 x x ) ) 0) )))

(check-sat)
(get-model)
